c grafo de Petersen
c entrada usada para teste
p edge 10 29
e 1 2
e 1 4
e 1 6
e 2 1
e 2 3
e 2 7
e 3 2
e 3 8
e 3 5
e 5 3
e 5 4
e 5 10
e 4 1
e 4 5
e 4 9
e 6 1
e 6 8
e 6 10
e 7 2
e 7 9
e 7 10
e 8 3
e 8 6
e 8 9
e 9 4
e 9 7
e 9 8
e 10 5
e 10 6
e 10 7



